(set-info :smt-lib-version 2.6)
(set-logic QF_NIA)
(set-info :source |AProve team, see http://aprove.informatik.rwth-aachen.de/, submitted for SMT-COMP 2014|)
(set-info :category "industrial")
(set-info :status unsat)
(declare-fun b__11 () Int)
(declare-fun a__2 () Int)
(declare-fun a__7 () Int)
(declare-fun a__4 () Int)
(declare-fun a__5 () Int)
(declare-fun a__8 () Int)
(assert (and (>= (+ 1 (* (- 0 1) b__11)) 0) (= (+ (* b__11 a__2) (* (- 0 1) a__2)) 0) (>= (+ (* a__7 a__4 a__2) (* a__7 a__5 a__2) (- 0 1)) 0) (>= (+ (* a__8 a__4 a__2) (* (- 0 1) (* a__4 a__2))) 0) (>= (+ (* a__8 a__5 a__2) (* (- 0 1) (* a__5 a__2))) 0) (= (* b__11 a__4) 0) (= (* b__11 a__5) 0) (>= b__11 0) (>= 1 b__11) (>= a__2 0) (>= a__7 0) (>= a__4 0) (>= a__5 0) (>= a__8 0)))
(assert (<= a__2 100))
(assert (<= a__4 100))
(assert (<= a__5 100))
(assert (<= a__7 100))
(assert (<= a__8 100))
(check-sat)
;;(get-assignment)
;;(get-model)
(exit)
